c preprocessed version of dimacs_inithx.i.2, 285 vertices, 5098 edges
p td 285 5098
1 0
3 0
5 0
7 0
9 0
11 0
0 2
1 2
1 4
1 6
1 8
1 268
1 269
1 272
1 271
1 270
1 275
1 274
1 273
1 276
1 183
1 184
1 185
1 260
1 259
1 258
1 262
1 261
1 263
1 264
1 266
1 267
1 265
1 249
1 253
1 254
1 250
1 257
1 255
1 256
1 251
1 252
3 2
5 2
7 2
9 2
11 2
3 4
3 6
3 8
3 247
3 248
3 226
3 227
3 167
3 192
3 195
3 202
3 204
3 203
3 201
3 206
3 205
3 200
3 194
3 199
3 198
3 197
3 196
3 193
3 207
3 55
3 211
3 210
3 209
3 208
3 186
3 188
3 187
3 5
3 166
3 176
3 178
3 180
3 182
3 181
3 175
3 179
3 177
3 168
3 273
3 274
3 275
3 270
3 271
3 272
3 269
3 268
3 252
3 251
3 256
3 255
3 257
3 250
3 254
3 253
3 249
3 258
3 259
3 260
3 261
3 262
3 265
3 267
3 266
3 264
3 263
3 189
3 190
3 191
3 183
3 185
3 184
3 17
3 49
3 51
3 59
228 3
5 4
7 4
9 4
11 4
5 6
5 8
5 247
5 248
5 226
5 227
5 42
5 44
5 46
5 45
5 43
5 41
5 167
5 192
5 195
5 202
5 204
5 203
5 201
5 206
5 205
5 200
5 194
5 199
5 198
5 197
5 196
5 193
5 207
5 55
5 211
5 210
5 209
5 208
5 186
5 188
5 187
5 189
5 190
5 191
5 59
5 183
5 185
5 166
5 176
5 178
5 180
5 182
5 181
5 175
5 179
5 177
5 168
5 270
5 271
5 272
5 269
5 268
5 252
5 251
5 256
5 255
5 257
5 250
5 254
5 253
5 249
5 258
5 259
5 260
5 261
5 262
5 265
5 267
5 266
5 264
5 263
5 184
5 49
5 51
228 5
7 6
9 6
11 6
7 8
7 13
7 10
7 12
7 15
7 20
7 16
7 22
7 18
7 24
7 26
7 28
7 247
7 248
7 30
7 32
7 34
7 36
7 38
7 226
7 227
7 40
7 42
7 44
7 46
7 45
7 43
7 47
7 41
7 137
7 138
7 141
7 139
7 167
7 140
7 48
7 50
7 134
7 142
7 52
7 143
7 145
7 144
7 146
7 147
7 54
7 163
7 192
7 149
7 148
7 164
7 151
7 155
7 154
7 157
7 159
7 161
7 156
7 153
7 158
7 136
7 160
7 162
7 150
7 152
7 195
7 202
7 204
7 135
7 203
7 201
7 206
7 205
7 84
7 200
7 194
7 199
7 198
7 98
7 197
7 196
7 193
7 99
7 165
7 122
7 121
7 120
7 119
7 123
7 207
7 55
7 211
7 125
7 124
7 118
7 117
7 128
7 210
7 209
7 208
7 129
7 103
7 106
7 130
7 107
7 105
7 186
7 104
7 116
7 86
7 115
7 109
7 113
7 112
7 114
7 111
7 108
7 110
7 89
7 188
7 187
7 127
7 82
7 81
7 57
7 83
7 53
7 56
7 189
7 60
7 190
7 191
7 59
7 80
7 79
7 77
7 76
7 75
7 78
7 74
7 73
7 58
7 66
7 62
7 72
7 71
7 64
7 70
7 100
7 69
7 63
7 65
7 68
7 67
7 61
7 101
7 102
7 85
7 95
7 88
7 87
7 126
7 183
7 97
7 96
7 91
7 94
7 93
7 92
7 90
7 185
7 184
7 166
7 176
7 178
7 180
7 182
7 181
7 51
7 133
7 132
7 49
7 175
7 179
7 177
7 168
7 131
7 14
7 19
7 21
7 23
7 25
7 27
7 29
7 31
7 33
7 35
7 37
7 39
7 233
7 236
7 235
7 238
7 237
7 234
7 246
7 245
7 240
7 244
7 232
7 243
7 242
7 239
7 241
7 231
7 230
7 229
7 214
7 213
7 216
7 217
7 215
7 220
7 222
7 221
7 219
7 223
7 218
7 212
7 225
7 224
7 268
7 269
7 260
7 259
7 258
7 262
7 261
7 263
7 264
7 266
7 267
7 265
7 249
7 253
7 254
7 250
7 257
7 255
7 256
7 251
7 252
228 7
9 8
11 8
9 10
9 12
9 16
9 22
9 18
9 24
9 26
9 28
9 247
9 248
9 30
9 32
9 34
9 36
9 38
9 226
9 227
9 40
9 42
9 44
9 46
9 45
9 43
9 47
9 41
9 137
9 138
9 141
9 139
9 167
9 140
9 48
9 50
9 134
9 142
9 169
9 52
9 143
9 145
9 144
9 146
9 147
9 54
9 163
9 192
9 149
9 148
9 164
9 151
9 155
9 154
9 157
9 159
9 161
9 156
9 153
9 158
9 136
9 160
9 162
9 150
9 152
9 195
9 202
9 204
9 135
9 203
9 201
9 206
9 205
9 84
9 200
9 194
9 199
9 198
9 98
9 197
9 196
9 193
9 99
9 165
9 122
9 121
9 120
9 119
9 123
9 207
9 55
9 211
9 125
9 124
9 118
9 117
9 128
9 210
9 209
9 208
9 170
9 129
9 103
9 106
9 130
9 107
9 105
9 186
9 104
9 116
9 86
9 115
9 109
9 113
9 112
9 114
9 111
9 108
9 110
9 89
9 188
9 187
9 127
9 82
9 81
9 57
9 83
9 53
9 56
9 189
9 60
9 190
9 191
9 59
9 80
9 79
9 77
9 76
9 75
9 78
9 74
9 73
9 58
9 66
9 62
9 72
9 71
9 64
9 70
9 100
9 69
9 63
9 65
9 68
9 67
9 61
9 171
9 101
9 102
9 85
9 95
9 88
9 87
9 126
9 183
9 97
9 96
9 91
9 94
9 93
9 92
9 90
9 185
9 184
9 172
9 166
9 176
9 178
9 180
9 182
9 173
9 181
9 51
9 133
9 132
9 174
9 49
9 175
9 179
9 177
9 168
9 131
9 11
9 249
9 258
9 259
9 260
9 261
9 262
9 265
9 267
9 266
9 264
9 263
9 231
9 214
9 215
9 217
9 216
9 213
9 218
9 223
9 219
9 221
9 222
9 220
9 224
9 225
9 212
9 229
9 230
9 241
9 239
9 242
9 243
9 232
9 244
9 240
9 245
9 246
228 9
11 10
13 10
14 10
17 10
19 10
21 10
23 10
25 10
27 10
29 10
31 10
33 10
35 10
213 10
37 10
215 10
219 10
223 10
39 10
10 12
11 12
11 16
11 22
11 18
11 24
11 26
11 28
11 47
11 247
11 248
11 38
11 226
11 227
11 167
11 50
11 142
11 169
11 52
11 143
11 145
11 144
11 146
11 147
11 54
11 163
11 192
11 149
11 148
11 151
11 155
11 154
11 157
11 159
11 161
11 156
11 153
11 158
11 160
11 162
11 150
11 152
11 195
11 202
11 204
11 203
11 201
11 206
11 205
11 84
11 200
11 194
11 199
11 198
11 98
11 197
11 196
11 193
11 99
11 165
11 122
11 121
11 120
11 119
11 123
11 207
11 55
11 211
11 125
11 124
11 118
11 117
11 128
11 210
11 209
11 208
11 170
11 129
11 103
11 106
11 130
11 107
11 105
11 186
11 104
11 116
11 86
11 115
11 109
11 113
11 112
11 114
11 111
11 108
11 110
11 89
11 188
11 187
11 127
11 82
11 81
11 57
11 83
11 53
11 56
11 189
11 60
11 190
11 191
11 59
11 80
11 79
11 77
11 76
11 75
11 78
11 74
11 73
11 58
11 66
11 62
11 72
11 71
11 64
11 70
11 100
11 69
11 63
11 65
11 68
11 67
11 61
11 171
11 101
11 102
11 85
11 95
11 88
11 87
11 126
11 183
11 97
11 96
11 91
11 94
11 93
11 92
11 90
11 185
11 184
11 172
11 166
11 176
11 178
11 180
11 182
11 173
11 181
11 51
11 133
11 132
11 174
11 49
11 175
11 179
11 177
11 168
11 131
228 11
13 12
14 12
17 12
19 12
21 12
23 12
25 12
27 12
29 12
31 12
33 12
35 12
213 12
37 12
215 12
219 12
223 12
39 12
14 13
19 13
21 13
23 13
25 13
27 13
29 13
31 13
33 13
35 13
37 13
39 13
13 15
13 20
13 22
13 28
13 30
13 38
13 47
13 50
13 52
13 54
13 164
13 136
13 135
13 84
13 98
13 99
13 55
13 128
13 129
13 130
13 86
13 89
13 127
13 60
13 59
13 73
13 66
13 100
13 101
13 102
13 126
13 51
13 133
13 132
13 49
13 131
13 16
13 18
13 24
13 26
13 32
13 34
13 36
13 40
13 42
13 44
13 46
13 45
13 43
13 41
13 137
13 138
13 141
13 139
13 140
13 48
13 134
13 142
13 143
13 145
13 144
13 146
13 147
13 163
13 149
13 148
13 151
13 155
13 154
13 157
13 159
13 161
13 156
13 153
13 158
13 160
13 162
13 150
13 152
13 165
13 122
13 121
13 120
13 119
13 123
13 125
13 124
13 118
13 117
13 103
13 106
13 107
13 105
13 104
13 116
13 115
13 109
13 113
13 112
13 114
13 111
13 108
13 110
13 82
13 81
13 57
13 83
13 53
13 56
13 80
13 79
13 77
13 76
13 75
13 78
13 74
13 58
13 62
13 72
13 71
13 64
13 70
13 69
13 63
13 65
13 68
13 67
13 61
13 85
13 95
13 88
13 87
13 97
13 96
13 91
13 94
13 93
13 92
13 90
13 181
13 175
13 182
13 180
13 178
13 176
13 166
14 15
14 20
14 16
14 22
14 18
14 24
14 26
14 28
14 30
14 32
14 34
14 36
14 38
14 40
14 42
14 44
14 46
14 45
14 43
14 47
14 41
14 137
14 138
14 141
14 139
14 140
14 48
14 50
14 134
14 142
14 52
14 143
14 145
14 144
14 146
14 147
14 54
14 163
14 149
14 148
14 164
14 151
14 155
14 154
14 157
14 159
14 161
14 156
14 153
14 158
14 136
14 160
14 162
14 150
14 152
14 135
14 84
14 98
14 99
14 165
14 122
14 121
14 120
14 119
14 123
14 55
14 125
14 124
14 118
14 117
14 128
14 129
14 103
14 106
14 130
14 107
14 105
14 104
14 116
14 86
14 115
14 109
14 113
14 112
14 114
14 111
14 108
14 110
14 89
14 127
14 82
14 81
14 57
14 83
14 53
14 56
14 60
14 59
14 80
14 79
14 77
14 76
14 75
14 78
14 74
14 73
14 58
14 66
14 62
14 72
14 71
14 64
14 70
14 100
14 69
14 63
14 65
14 68
14 67
14 61
14 101
14 102
14 85
14 95
14 88
14 87
14 126
14 97
14 96
14 91
14 94
14 93
14 92
14 90
14 51
14 133
14 132
14 49
14 131
14 19
14 21
14 23
14 25
14 27
14 29
14 31
14 33
14 35
14 37
14 39
14 236
14 235
14 238
14 237
14 234
14 246
14 245
14 240
14 244
14 232
14 243
14 242
14 239
14 241
14 231
14 230
14 229
14 214
14 213
14 216
14 217
14 215
14 220
14 222
14 221
14 219
14 223
14 218
14 212
14 225
14 224
15 16
19 15
21 15
23 15
25 15
27 15
29 15
31 15
33 15
35 15
37 15
39 15
15 20
15 22
15 28
15 30
15 38
15 47
15 50
15 52
15 54
15 164
15 136
15 135
15 84
15 98
15 99
15 55
15 128
15 129
15 130
15 86
15 89
15 127
15 60
15 59
15 73
15 66
15 100
15 101
15 102
15 126
15 51
15 133
15 132
15 49
15 131
15 18
15 24
15 26
15 32
15 34
15 36
15 40
15 42
15 44
15 46
15 45
15 43
15 41
15 137
15 138
15 141
15 139
15 140
15 48
15 134
15 142
15 143
15 145
15 144
15 146
15 147
15 163
15 149
15 148
15 151
15 155
15 154
15 157
15 159
15 161
15 156
15 153
15 158
15 160
15 162
15 150
15 152
15 165
15 122
15 121
15 120
15 119
15 123
15 125
15 124
15 118
15 117
15 103
15 106
15 107
15 105
15 104
15 116
15 115
15 109
15 113
15 112
15 114
15 111
15 108
15 110
15 82
15 81
15 57
15 83
15 53
15 56
15 80
15 79
15 77
15 76
15 75
15 78
15 74
15 58
15 62
15 72
15 71
15 64
15 70
15 69
15 63
15 65
15 68
15 67
15 61
15 85
15 95
15 88
15 87
15 97
15 96
15 91
15 94
15 93
15 92
15 90
15 181
15 175
15 182
15 180
15 178
15 176
15 166
17 16
19 16
21 16
20 16
23 16
25 16
27 16
29 16
31 16
33 16
35 16
37 16
39 16
16 24
16 18
17 18
17 24
17 26
17 142
17 143
17 145
17 144
17 146
17 147
17 163
17 149
17 148
17 151
17 155
17 154
17 157
17 159
17 161
17 156
17 153
17 158
17 160
17 162
17 150
17 152
17 165
17 122
17 121
17 120
17 119
17 123
17 125
17 124
17 118
17 117
17 103
17 106
17 107
17 105
17 104
17 116
17 115
17 109
17 113
17 112
17 114
17 111
17 108
17 110
17 82
17 81
17 57
17 83
17 53
17 56
17 80
17 79
17 77
17 76
17 75
17 78
17 74
17 58
17 62
17 72
17 71
17 64
17 70
17 69
17 63
17 65
17 85
17 87
17 88
17 95
17 90
17 92
17 93
17 94
17 91
17 96
17 97
17 231
17 61
17 67
17 68
17 214
17 215
17 217
17 216
17 213
17 218
17 223
17 219
17 221
17 222
17 220
17 224
17 225
17 212
17 229
17 230
17 233
17 234
17 237
17 238
17 235
17 236
17 241
17 239
17 242
17 243
17 232
17 244
17 240
17 245
17 246
19 18
21 18
20 18
23 18
25 18
27 18
29 18
31 18
33 18
35 18
37 18
39 18
18 24
19 20
19 22
19 24
19 26
19 28
19 30
19 32
19 34
19 36
19 38
19 40
19 42
19 44
19 46
19 45
19 43
19 47
19 41
19 137
19 138
19 141
19 139
19 140
19 48
19 50
19 134
19 142
19 52
19 143
19 145
19 144
19 146
19 147
19 54
19 163
19 149
19 148
19 164
19 151
19 155
19 154
19 157
19 159
19 161
19 156
19 153
19 158
19 136
19 160
19 162
19 150
19 152
19 135
19 84
19 98
19 99
19 165
19 122
19 121
19 120
19 119
19 123
19 55
19 125
19 124
19 118
19 117
19 128
19 129
19 103
19 106
19 130
19 107
19 105
19 104
19 116
19 86
19 115
19 109
19 113
19 112
19 114
19 111
19 108
19 110
19 89
19 127
19 82
19 81
19 57
19 83
19 53
19 56
19 60
19 59
19 80
19 79
19 77
19 76
19 75
19 78
19 74
19 73
19 58
19 66
19 62
19 72
19 71
19 64
19 70
19 100
19 69
19 63
19 65
19 68
19 67
19 61
19 101
19 102
19 85
19 95
19 88
19 87
19 126
19 97
19 96
19 91
19 94
19 93
19 92
19 90
19 51
19 133
19 132
19 49
19 131
19 21
19 23
19 25
19 27
19 29
19 31
19 33
19 35
19 37
19 39
19 246
19 245
19 240
19 244
19 232
19 243
19 242
19 239
19 241
19 231
19 230
19 229
19 214
19 213
19 216
19 217
19 215
19 220
19 222
19 221
19 219
19 223
19 218
19 212
19 225
19 224
21 20
23 20
25 20
27 20
29 20
31 20
33 20
35 20
37 20
39 20
20 22
20 28
20 30
20 38
20 47
20 50
20 52
20 54
20 164
20 136
20 135
20 84
20 98
20 99
20 55
20 128
20 129
20 130
20 86
20 89
20 127
20 60
20 59
20 73
20 66
20 100
20 101
20 102
20 126
20 51
20 133
20 132
20 49
20 131
20 24
20 26
20 32
20 34
20 36
20 40
20 42
20 44
20 46
20 45
20 43
20 41
20 137
20 138
20 141
20 139
20 140
20 48
20 134
20 142
20 143
20 145
20 144
20 146
20 147
20 163
20 149
20 148
20 151
20 155
20 154
20 157
20 159
20 161
20 156
20 153
20 158
20 160
20 162
20 150
20 152
20 165
20 122
20 121
20 120
20 119
20 123
20 125
20 124
20 118
20 117
20 103
20 106
20 107
20 105
20 104
20 116
20 115
20 109
20 113
20 112
20 114
20 111
20 108
20 110
20 82
20 81
20 57
20 83
20 53
20 56
20 80
20 79
20 77
20 76
20 75
20 78
20 74
20 58
20 62
20 72
20 71
20 64
20 70
20 69
20 63
20 65
20 68
20 67
20 61
20 85
20 95
20 88
20 87
20 97
20 96
20 91
20 94
20 93
20 92
20 90
20 181
20 175
20 182
20 180
20 178
20 176
20 166
21 22
21 24
21 26
21 28
21 30
21 32
21 34
21 36
21 38
21 40
21 42
21 44
21 46
21 45
21 43
21 47
21 41
21 137
21 138
21 141
21 139
21 140
21 48
21 50
21 134
21 142
21 52
21 143
21 145
21 144
21 146
21 147
21 54
21 163
21 149
21 148
21 164
21 151
21 155
21 154
21 157
21 159
21 161
21 156
21 153
21 158
21 136
21 160
21 162
21 150
21 152
21 135
21 84
21 98
21 99
21 165
21 122
21 121
21 120
21 119
21 123
21 55
21 125
21 124
21 118
21 117
21 128
21 129
21 103
21 106
21 130
21 107
21 105
21 104
21 116
21 86
21 115
21 109
21 113
21 112
21 114
21 111
21 108
21 110
21 89
21 127
21 82
21 81
21 57
21 83
21 53
21 56
21 60
21 59
21 80
21 79
21 77
21 76
21 75
21 78
21 74
21 73
21 58
21 66
21 62
21 72
21 71
21 64
21 70
21 100
21 69
21 63
21 65
21 68
21 67
21 61
21 101
21 102
21 85
21 95
21 88
21 87
21 126
21 97
21 96
21 91
21 94
21 93
21 92
21 90
21 51
21 133
21 132
21 49
21 131
21 23
21 25
21 27
21 29
21 31
21 33
21 35
21 37
21 39
21 246
21 245
21 240
21 244
21 232
21 243
21 242
21 239
21 241
21 231
21 230
21 229
21 214
21 213
21 216
21 217
21 215
21 220
21 222
21 221
21 219
21 223
21 218
21 212
21 225
21 224
228 21
23 22
25 22
27 22
29 22
31 22
33 22
35 22
37 22
39 22
22 49
22 51
22 55
22 99
22 98
22 28
23 24
23 26
23 28
23 30
23 32
23 34
23 36
23 38
23 227
23 40
23 42
23 44
23 46
23 45
23 43
23 47
23 41
23 137
23 138
23 141
23 139
23 140
23 48
23 50
23 134
23 142
23 52
23 143
23 145
23 144
23 146
23 147
23 54
23 163
23 149
23 148
23 164
23 151
23 155
23 154
23 157
23 159
23 161
23 156
23 153
23 158
23 136
23 160
23 162
23 150
23 152
23 135
23 84
23 98
23 99
23 165
23 122
23 121
23 120
23 119
23 123
23 55
23 125
23 124
23 118
23 117
23 128
23 129
23 103
23 106
23 130
23 107
23 105
23 104
23 116
23 86
23 115
23 109
23 113
23 112
23 114
23 111
23 108
23 110
23 89
23 127
23 82
23 81
23 57
23 83
23 53
23 56
23 60
23 59
23 80
23 79
23 77
23 76
23 75
23 78
23 74
23 73
23 58
23 66
23 62
23 72
23 71
23 64
23 70
23 100
23 69
23 63
23 65
23 68
23 67
23 61
23 101
23 102
23 85
23 95
23 88
23 87
23 126
23 97
23 96
23 91
23 94
23 93
23 92
23 90
23 51
23 133
23 132
23 49
23 131
23 25
23 27
23 29
23 31
23 33
23 35
23 37
23 39
23 246
23 245
23 240
23 244
23 232
23 243
23 242
23 239
23 241
23 231
23 230
23 229
23 214
23 213
23 216
23 217
23 215
23 220
23 222
23 221
23 219
23 223
23 218
23 212
23 225
23 224
228 23
25 24
27 24
29 24
31 24
33 24
35 24
37 24
39 24
25 26
25 28
25 30
25 32
25 34
25 36
25 38
25 226
25 227
25 40
25 42
25 44
25 46
25 45
25 43
25 47
25 41
25 137
25 138
25 141
25 139
25 140
25 48
25 50
25 134
25 142
25 52
25 143
25 145
25 144
25 146
25 147
25 54
25 163
25 149
25 148
25 164
25 151
25 155
25 154
25 157
25 159
25 161
25 156
25 153
25 158
25 136
25 160
25 162
25 150
25 152
25 135
25 84
25 98
25 99
25 165
25 122
25 121
25 120
25 119
25 123
25 55
25 125
25 124
25 118
25 117
25 128
25 129
25 103
25 106
25 130
25 107
25 105
25 104
25 116
25 86
25 115
25 109
25 113
25 112
25 114
25 111
25 108
25 110
25 89
25 127
25 82
25 81
25 57
25 83
25 53
25 56
25 60
25 59
25 80
25 79
25 77
25 76
25 75
25 78
25 74
25 73
25 58
25 66
25 62
25 72
25 71
25 64
25 70
25 100
25 69
25 63
25 65
25 68
25 67
25 61
25 101
25 102
25 85
25 95
25 88
25 87
25 126
25 97
25 96
25 91
25 94
25 93
25 92
25 90
25 51
25 133
25 132
25 49
25 131
25 27
25 29
25 31
25 33
25 35
25 37
25 39
25 232
25 243
25 242
25 239
25 241
25 231
25 230
25 229
25 214
25 213
25 216
25 217
25 215
25 220
25 222
25 221
25 219
25 223
25 218
25 212
25 225
25 224
228 25
27 26
29 26
31 26
33 26
35 26
37 26
39 26
27 28
27 30
27 32
27 34
27 36
27 38
27 226
27 227
27 40
27 42
27 44
27 46
27 45
27 43
27 47
27 41
27 137
27 138
27 141
27 139
27 140
27 48
27 50
27 134
27 142
27 52
27 143
27 145
27 144
27 146
27 147
27 54
27 163
27 149
27 148
27 164
27 151
27 155
27 154
27 157
27 159
27 161
27 156
27 153
27 158
27 136
27 160
27 162
27 150
27 152
27 135
27 84
27 98
27 99
27 165
27 122
27 121
27 120
27 119
27 123
27 55
27 125
27 124
27 118
27 117
27 128
27 129
27 103
27 106
27 130
27 107
27 105
27 104
27 116
27 86
27 115
27 109
27 113
27 112
27 114
27 111
27 108
27 110
27 89
27 127
27 82
27 81
27 57
27 83
27 53
27 56
27 60
27 59
27 80
27 79
27 77
27 76
27 75
27 78
27 74
27 73
27 58
27 66
27 62
27 72
27 71
27 64
27 70
27 100
27 69
27 63
27 65
27 68
27 67
27 61
27 101
27 102
27 85
27 95
27 88
27 87
27 126
27 97
27 96
27 91
27 94
27 93
27 92
27 90
27 166
27 51
27 133
27 132
27 49
27 131
27 29
27 31
27 33
27 35
27 37
27 39
27 231
27 230
27 229
27 214
27 213
27 216
27 217
27 215
27 220
27 222
27 221
27 219
27 223
27 218
27 212
27 225
27 224
228 27
29 28
31 28
33 28
35 28
37 28
39 28
28 49
28 51
28 55
28 99
28 98
29 30
29 32
29 34
29 36
29 38
29 226
29 227
29 40
29 42
29 44
29 46
29 45
29 43
29 47
29 41
29 137
29 138
29 141
29 139
29 140
29 48
29 50
29 134
29 142
29 52
29 143
29 145
29 144
29 146
29 147
29 54
29 163
29 149
29 148
29 164
29 151
29 155
29 154
29 157
29 159
29 161
29 156
29 153
29 158
29 136
29 160
29 162
29 150
29 152
29 135
29 84
29 98
29 99
29 165
29 122
29 121
29 120
29 119
29 123
29 55
29 125
29 124
29 118
29 117
29 128
29 129
29 103
29 106
29 130
29 107
29 105
29 104
29 116
29 86
29 115
29 109
29 113
29 112
29 114
29 111
29 108
29 110
29 89
29 127
29 82
29 81
29 57
29 83
29 53
29 56
29 60
29 59
29 80
29 79
29 77
29 76
29 75
29 78
29 74
29 73
29 58
29 66
29 62
29 72
29 71
29 64
29 70
29 100
29 69
29 63
29 65
29 68
29 67
29 61
29 101
29 102
29 85
29 95
29 88
29 87
29 126
29 97
29 96
29 91
29 94
29 93
29 92
29 90
29 166
29 176
29 51
29 133
29 132
29 49
29 131
29 31
29 33
29 35
29 37
29 39
29 231
29 230
29 229
29 214
29 213
29 216
29 217
29 215
29 220
29 222
29 221
29 219
29 223
29 218
29 212
29 225
29 224
228 29
31 30
33 30
35 30
37 30
39 30
30 140
30 139
30 138
30 164
31 32
31 34
31 36
31 38
31 226
31 227
31 40
31 42
31 44
31 46
31 45
31 43
31 47
31 41
31 137
31 138
31 141
31 139
31 140
31 48
31 50
31 134
31 142
31 52
31 143
31 145
31 144
31 146
31 147
31 54
31 163
31 149
31 148
31 164
31 151
31 155
31 154
31 157
31 159
31 161
31 156
31 153
31 158
31 136
31 160
31 162
31 150
31 152
31 135
31 84
31 98
31 99
31 165
31 122
31 121
31 120
31 119
31 123
31 55
31 125
31 124
31 118
31 117
31 128
31 129
31 103
31 106
31 130
31 107
31 105
31 104
31 116
31 86
31 115
31 109
31 113
31 112
31 114
31 111
31 108
31 110
31 89
31 127
31 82
31 81
31 57
31 83
31 53
31 56
31 60
31 59
31 80
31 79
31 77
31 76
31 75
31 78
31 74
31 73
31 58
31 66
31 62
31 72
31 71
31 64
31 70
31 100
31 69
31 63
31 65
31 68
31 67
31 61
31 101
31 102
31 85
31 95
31 88
31 87
31 126
31 97
31 96
31 91
31 94
31 93
31 92
31 90
31 166
31 176
31 178
31 51
31 133
31 132
31 49
31 131
31 33
31 35
31 37
31 39
31 229
31 214
31 213
31 216
31 217
31 215
31 220
31 222
31 221
31 219
31 223
31 218
31 212
31 225
31 224
228 31
33 32
35 32
37 32
39 32
32 34
33 34
33 36
33 38
33 226
33 227
33 40
33 42
33 44
33 46
33 45
33 43
33 47
33 41
33 137
33 138
33 141
33 139
33 140
33 48
33 50
33 134
33 142
33 52
33 143
33 145
33 144
33 146
33 147
33 54
33 163
33 149
33 148
33 164
33 151
33 155
33 154
33 157
33 159
33 161
33 156
33 153
33 158
33 136
33 160
33 162
33 150
33 152
33 135
33 84
33 98
33 99
33 165
33 122
33 121
33 120
33 119
33 123
33 55
33 125
33 124
33 118
33 117
33 128
33 129
33 103
33 106
33 130
33 107
33 105
33 104
33 116
33 86
33 115
33 109
33 113
33 112
33 114
33 111
33 108
33 110
33 89
33 127
33 82
33 81
33 57
33 83
33 53
33 56
33 60
33 59
33 80
33 79
33 77
33 76
33 75
33 78
33 74
33 73
33 58
33 66
33 62
33 72
33 71
33 64
33 70
33 100
33 69
33 63
33 65
33 68
33 67
33 61
33 101
33 102
33 85
33 95
33 88
33 87
33 126
33 97
33 96
33 91
33 94
33 93
33 92
33 90
33 166
33 176
33 178
33 180
33 51
33 133
33 132
33 49
33 131
33 35
33 37
33 39
33 214
33 213
33 216
33 217
33 215
33 220
33 222
33 221
33 219
33 223
33 218
33 212
33 225
33 224
228 33
35 34
37 34
39 34
35 36
35 38
35 40
35 42
35 44
35 46
35 45
35 43
35 47
35 41
35 137
35 138
35 141
35 139
35 140
35 48
35 50
35 134
35 142
35 52
35 143
35 145
35 144
35 146
35 147
35 54
35 163
35 149
35 148
35 164
35 151
35 155
35 154
35 157
35 159
35 161
35 156
35 153
35 158
35 136
35 160
35 162
35 150
35 152
35 135
35 84
35 98
35 99
35 165
35 122
35 121
35 120
35 119
35 123
35 55
35 125
35 124
35 118
35 117
35 128
35 129
35 103
35 106
35 130
35 107
35 105
35 104
35 116
35 86
35 115
35 109
35 113
35 112
35 114
35 111
35 108
35 110
35 89
35 127
35 82
35 81
35 57
35 83
35 53
35 56
35 60
35 59
35 80
35 79
35 77
35 76
35 75
35 78
35 74
35 73
35 58
35 66
35 62
35 72
35 71
35 64
35 70
35 100
35 69
35 63
35 65
35 68
35 67
35 61
35 101
35 102
35 85
35 95
35 88
35 87
35 126
35 97
35 96
35 91
35 94
35 93
35 92
35 90
35 166
35 176
35 178
35 180
35 182
35 181
35 51
35 133
35 132
35 49
35 175
35 131
35 37
35 39
35 214
35 213
35 216
35 217
35 215
35 220
35 222
35 221
35 219
35 223
35 218
35 212
35 225
35 224
37 36
39 36
36 48
37 38
37 40
37 42
37 44
37 46
37 45
37 43
37 47
37 41
37 137
37 138
37 141
37 139
37 140
37 48
37 50
37 134
37 142
37 52
37 143
37 145
37 144
37 146
37 147
37 54
37 163
37 149
37 148
37 164
37 151
37 155
37 154
37 157
37 159
37 161
37 156
37 153
37 158
37 136
37 160
37 162
37 150
37 152
37 135
37 84
37 98
37 99
37 165
37 122
37 121
37 120
37 119
37 123
37 55
37 125
37 124
37 118
37 117
37 128
37 129
37 103
37 106
37 130
37 107
37 105
37 104
37 116
37 86
37 115
37 109
37 113
37 112
37 114
37 111
37 108
37 110
37 89
37 127
37 82
37 81
37 57
37 83
37 53
37 56
37 60
37 59
37 80
37 79
37 77
37 76
37 75
37 78
37 74
37 73
37 58
37 66
37 62
37 72
37 71
37 64
37 70
37 100
37 69
37 63
37 65
37 68
37 67
37 61
37 101
37 102
37 85
37 95
37 88
37 87
37 126
37 97
37 96
37 91
37 94
37 93
37 92
37 90
37 166
37 176
37 178
37 180
37 182
37 181
37 51
37 133
37 132
37 49
37 175
37 131
37 39
37 215
37 220
37 222
37 221
37 219
37 223
37 218
37 212
37 225
37 224
39 38
38 49
38 51
38 55
39 40
39 42
39 44
39 46
39 45
39 43
39 47
39 41
39 137
39 138
39 141
39 139
39 140
39 48
39 50
39 134
39 142
39 52
39 143
39 145
39 144
39 146
39 147
39 54
39 163
39 149
39 148
39 164
39 151
39 155
39 154
39 157
39 159
39 161
39 156
39 153
39 158
39 136
39 160
39 162
39 150
39 152
39 135
39 84
39 98
39 99
39 165
39 122
39 121
39 120
39 119
39 123
39 55
39 125
39 124
39 118
39 117
39 128
39 129
39 103
39 106
39 130
39 107
39 105
39 104
39 116
39 86
39 115
39 109
39 113
39 112
39 114
39 111
39 108
39 110
39 89
39 127
39 82
39 81
39 57
39 83
39 53
39 56
39 60
39 59
39 80
39 79
39 77
39 76
39 75
39 78
39 74
39 73
39 58
39 66
39 62
39 72
39 71
39 64
39 70
39 100
39 69
39 63
39 65
39 68
39 67
39 61
39 101
39 102
39 85
39 95
39 88
39 87
39 126
39 97
39 96
39 91
39 94
39 93
39 92
39 90
39 166
39 176
39 178
39 180
39 182
39 181
39 51
39 133
39 132
39 49
39 175
39 131
39 212
39 225
39 224
40 41
40 43
40 45
40 46
40 44
40 42
42 41
44 41
46 41
45 41
43 41
42 43
42 45
42 46
42 44
44 43
46 43
45 43
44 45
44 46
46 45
47 48
47 49
47 51
47 55
47 134
47 135
47 136
47 137
50 49
52 49
54 49
84 49
98 49
99 49
55 49
128 49
129 49
130 49
86 49
89 49
127 49
60 49
59 49
73 49
66 49
100 49
101 49
102 49
126 49
51 49
49 131
50 51
50 53
50 57
50 59
50 55
50 54
50 52
50 58
50 61
50 67
50 66
50 68
50 65
50 63
50 69
50 70
50 64
50 71
50 72
50 62
50 73
50 74
50 78
50 75
50 76
50 77
50 79
50 80
50 56
52 51
54 51
84 51
98 51
99 51
55 51
128 51
129 51
130 51
86 51
89 51
127 51
60 51
59 51
73 51
66 51
100 51
101 51
102 51
126 51
51 131
51 132
51 133
52 53
52 55
52 61
52 67
52 66
52 68
52 65
52 63
52 69
52 70
52 64
52 71
52 72
52 57
52 62
52 58
52 59
54 53
55 53
57 53
83 53
53 56
53 58
53 71
53 72
53 62
53 74
53 78
53 75
53 76
53 77
53 79
53 80
54 55
54 56
54 57
54 59
54 79
54 80
55 56
84 55
98 55
99 55
55 86
55 85
55 87
55 88
55 95
55 90
55 92
55 89
55 93
55 94
55 91
55 96
55 97
55 59
55 83
55 57
55 81
55 82
55 100
55 101
55 103
55 104
55 105
55 107
55 106
55 102
55 110
55 108
55 111
55 114
55 112
55 113
55 109
55 115
55 116
55 117
55 118
55 124
55 125
55 126
55 58
55 61
55 67
55 66
55 68
55 65
55 63
55 69
55 70
55 64
55 71
55 72
55 62
55 73
55 74
55 78
55 75
55 76
55 77
55 79
55 80
55 60
55 127
55 128
55 129
55 130
55 131
57 56
56 74
56 78
56 75
56 76
56 77
56 79
56 80
57 58
81 57
57 83
57 63
57 69
57 70
57 64
57 71
57 72
57 62
57 74
57 78
57 75
57 76
57 77
57 79
57 80
59 58
58 69
58 70
58 64
58 71
58 72
58 62
60 59
59 61
59 67
59 66
59 68
59 65
59 63
59 69
59 70
59 64
59 71
59 72
59 62
59 73
59 74
59 78
59 75
59 76
59 77
59 79
59 80
62 61
66 61
68 61
62 63
66 62
62 67
62 68
62 65
62 69
62 70
62 64
62 71
62 72
64 63
63 68
63 65
64 65
64 69
64 70
66 65
65 68
66 67
66 68
68 67
75 74
76 75
75 78
77 76
82 81
81 83
84 85
84 86
84 87
84 88
84 95
84 90
84 92
84 89
84 93
84 94
84 91
84 96
84 97
86 85
89 85
85 87
85 88
85 95
85 90
85 92
85 93
85 94
85 91
85 96
85 97
86 87
86 88
86 95
86 90
86 92
86 89
86 93
86 94
86 91
86 96
86 97
88 87
87 96
87 97
89 88
95 88
88 90
88 92
88 93
88 94
88 91
88 96
88 97
89 90
89 92
89 94
89 93
89 91
91 90
92 90
91 92
91 93
91 94
93 92
94 93
98 99
100 101
100 102
101 102
103 104
103 105
103 107
103 106
103 110
103 108
103 111
103 114
103 112
103 113
103 109
103 115
103 116
105 104
104 115
104 116
106 105
107 105
105 108
105 111
105 114
105 112
105 113
105 109
105 115
105 116
106 107
109 108
114 108
111 108
108 110
109 110
109 111
109 114
109 112
109 113
111 110
112 111
114 111
113 112
112 114
113 114
119 118
125 118
120 119
119 124
119 125
119 123
121 120
120 123
122 121
125 124
128 129
128 130
129 130
137 138
138 139
138 141
138 140
139 140
143 144
143 145
145 144
144 146
145 146
146 147
146 150
146 162
146 160
146 158
146 153
146 156
146 161
146 159
146 157
146 154
146 155
146 151
146 148
146 149
147 148
147 149
151 150
156 150
153 150
158 150
160 150
162 150
150 152
151 152
151 162
151 160
151 158
151 153
151 156
151 161
151 159
151 157
151 154
151 155
153 152
158 152
160 152
162 152
154 153
157 153
159 153
161 153
156 153
153 162
153 160
153 158
155 154
154 156
154 161
154 159
154 157
155 156
155 161
155 159
155 157
157 156
159 156
161 156
156 162
156 160
156 158
157 158
157 161
157 159
159 158
161 158
158 162
158 160
159 160
159 161
161 160
160 162
161 162
167 166
166 168
169 166
170 166
171 166
172 166
166 175
166 177
166 179
166 181
166 182
166 180
166 178
166 176
167 168
167 177
167 179
167 175
167 181
167 182
167 180
167 178
167 176
169 168
170 168
171 168
172 168
176 168
178 168
180 168
182 168
173 168
181 168
174 168
175 168
179 168
169 170
169 171
169 172
169 173
169 174
169 176
169 178
169 180
169 182
169 181
169 175
169 179
169 177
169 192
169 195
169 202
169 204
169 203
169 201
169 206
169 205
169 200
169 194
169 199
169 198
169 197
169 196
169 193
169 207
169 211
169 210
169 209
169 208
169 186
169 188
169 187
169 189
169 190
169 191
169 183
169 185
169 184
170 171
170 172
170 173
170 174
170 176
170 178
170 180
170 182
170 181
170 175
170 179
170 177
170 186
170 188
170 187
170 189
170 190
170 191
170 183
170 185
170 184
171 172
171 173
171 174
171 176
171 178
171 180
171 182
171 181
171 175
171 179
171 177
171 183
171 185
171 184
172 173
172 174
172 176
172 178
172 180
172 182
172 181
172 175
172 179
172 177
173 174
173 181
173 175
173 179
173 177
174 175
174 179
174 177
176 175
178 175
180 175
182 175
181 175
175 177
175 179
176 177
176 179
176 181
176 182
176 180
176 178
178 177
180 177
182 177
181 177
179 177
178 179
178 181
178 182
178 180
180 179
182 179
181 179
180 181
180 182
182 181
183 184
183 185
186 187
186 188
188 187
192 193
192 196
192 197
192 198
192 199
192 194
192 200
192 205
192 206
192 201
192 203
192 204
192 202
192 195
194 193
196 193
195 194
194 196
194 197
194 198
194 199
195 196
195 197
195 198
195 199
195 200
195 205
195 206
195 201
195 203
195 204
195 202
199 198
201 200
206 200
202 201
203 201
201 205
201 206
202 203
202 204
206 205
207 208
207 209
207 210
207 211
209 208
211 210
213 212
215 212
214 213
213 215
213 217
213 216
213 218
213 223
213 219
213 221
213 222
213 220
213 224
213 225
216 215
217 215
215 218
215 223
215 219
215 221
215 222
215 220
215 224
215 225
216 217
219 218
223 218
218 224
218 225
220 219
222 219
221 219
219 223
219 224
219 225
220 221
220 222
222 221
221 223
222 223
223 224
223 225
226 227
228 226
228 227
230 229
233 232
237 232
240 232
244 232
232 242
232 243
233 234
233 237
233 238
233 235
233 236
233 241
233 239
233 242
233 243
233 244
233 240
233 245
233 246
235 234
238 234
237 234
234 245
234 246
236 235
235 237
235 238
236 237
236 238
238 237
237 239
237 242
237 243
237 244
237 240
237 245
237 246
240 239
243 239
242 239
239 241
240 241
240 242
240 243
240 244
242 241
243 242
244 243
250 249
254 249
253 249
251 250
255 250
257 250
250 253
250 254
252 251
251 253
251 254
251 257
251 255
251 256
254 253
255 254
256 255
255 257
261 262
261 263
261 264
261 266
261 267
261 265
262 263
262 264
262 266
262 267
262 265
265 264
265 266
265 267
277 278
277 280
277 228
277 281
277 282
277 283
277 0
277 2
277 1
277 4
277 3
277 279
277 5
277 6
277 8
277 9
277 10
277 12
277 17
277 16
277 22
277 18
277 24
277 26
277 28
277 30
277 32
277 34
277 36
277 48
277 47
277 11
277 247
277 248
277 38
277 49
277 50
277 53
277 52
277 51
277 54
277 56
277 55
277 84
277 85
277 86
277 87
277 88
277 89
277 90
277 91
277 92
277 93
277 94
277 95
277 96
277 97
277 98
277 99
277 59
277 60
277 58
277 57
277 81
277 82
277 83
277 63
277 62
277 66
277 61
277 68
277 65
277 64
277 69
277 70
277 67
277 71
277 72
277 74
277 75
277 76
277 77
277 78
277 79
277 80
277 73
277 100
277 101
277 102
277 103
277 104
277 105
277 106
277 107
277 108
277 109
277 110
277 111
277 112
277 113
277 114
277 115
277 116
277 117
277 118
277 119
277 120
277 121
277 122
277 123
277 124
277 125
277 126
277 127
277 128
277 129
277 130
277 131
277 132
277 133
277 226
277 227
277 167
277 168
277 169
277 170
277 171
277 172
277 173
277 174
277 175
277 166
277 177
277 176
277 179
277 178
277 181
277 180
277 182
277 183
277 284
277 268
277 269
277 272
277 271
277 270
277 275
277 274
277 273
277 276
277 184
277 185
277 260
277 259
277 258
277 262
277 261
277 263
277 264
277 265
277 266
277 267
277 249
277 250
277 251
277 252
277 253
277 254
277 255
277 256
277 257
277 186
277 187
277 188
277 189
277 190
277 191
277 192
277 193
277 194
277 195
277 196
277 197
277 198
277 199
277 200
277 201
277 202
277 203
277 204
277 205
277 206
277 207
277 208
277 209
277 210
277 211
277 142
277 143
277 144
277 145
277 146
277 147
277 148
277 149
277 150
277 151
277 152
277 153
277 154
277 155
277 156
277 157
277 158
277 159
277 160
277 161
277 162
277 163
277 165
277 134
277 135
277 136
277 137
277 138
277 139
277 140
277 141
277 40
277 41
277 42
277 43
277 44
277 45
277 46
277 164
277 212
277 213
277 214
277 215
277 216
277 217
277 218
277 219
277 220
277 221
277 222
277 223
277 224
277 225
277 229
277 230
277 231
277 232
277 233
277 234
277 235
277 236
277 237
277 238
277 239
277 240
277 241
277 242
277 243
277 244
277 245
277 246
278 283
278 280
278 281
278 282
278 3
278 5
278 167
278 166
278 176
278 178
278 180
278 182
278 181
278 175
278 179
278 177
278 168
278 284
278 1
278 276
278 273
278 274
278 275
278 270
278 271
278 272
278 269
278 268
278 252
278 251
278 256
278 255
278 257
278 250
278 254
278 253
278 249
278 258
278 259
278 260
278 261
278 262
278 265
278 267
278 266
278 264
278 263
278 0
278 2
278 4
278 279
278 6
278 8
278 247
278 248
278 226
278 227
278 228
278 192
278 195
278 202
278 204
278 203
278 201
278 206
278 205
278 200
278 194
278 199
278 198
278 197
278 196
278 193
278 207
278 211
278 210
278 209
278 208
278 186
278 188
278 187
278 189
278 190
278 191
278 183
278 185
278 184
278 44
278 46
278 45
278 43
278 41
279 1
279 3
279 5
279 7
279 9
279 11
279 280
279 281
279 282
279 283
280 283
280 0
280 2
280 4
280 16
280 281
280 282
280 3
280 5
280 167
280 166
280 176
280 178
280 180
280 182
280 181
280 175
280 179
280 177
280 168
280 284
280 1
280 276
280 273
280 274
280 275
280 270
280 271
280 272
280 269
280 268
280 252
280 251
280 256
280 255
280 257
280 250
280 254
280 253
280 249
280 258
280 259
280 260
280 261
280 262
280 265
280 267
280 266
280 264
280 263
280 6
280 8
280 247
280 248
280 226
280 227
280 228
280 192
280 195
280 202
280 204
280 203
280 201
280 206
280 205
280 200
280 194
280 199
280 198
280 197
280 196
280 193
280 207
280 211
280 210
280 209
280 208
280 186
280 188
280 187
280 189
280 190
280 191
280 183
280 185
280 184
280 17
280 49
280 51
280 55
280 59
280 24
280 18
281 228
281 0
281 2
281 4
281 16
281 18
281 24
281 6
281 8
281 247
281 248
281 226
281 227
281 167
281 282
281 3
281 5
281 166
281 176
281 178
281 180
281 182
281 181
281 175
281 179
281 177
281 168
281 284
281 1
281 276
281 273
281 274
281 275
281 270
281 271
281 272
281 269
281 268
281 252
281 251
281 256
281 255
281 257
281 250
281 254
281 253
281 249
281 258
281 259
281 260
281 261
281 262
281 265
281 267
281 266
281 264
281 263
281 192
281 195
281 202
281 204
281 203
281 201
281 206
281 205
281 200
281 194
281 199
281 198
281 197
281 196
281 193
281 207
281 211
281 210
281 209
281 208
281 186
281 188
281 187
281 189
281 190
281 191
281 183
281 185
281 184
281 17
281 49
281 51
281 55
281 59
281 283
282 228
282 0
282 2
282 4
282 6
282 8
282 247
282 248
282 226
282 227
282 167
282 192
282 3
282 5
282 166
282 176
282 178
282 180
282 182
282 181
282 175
282 179
282 177
282 168
282 284
282 1
282 276
282 273
282 274
282 275
282 270
282 271
282 272
282 269
282 268
282 252
282 251
282 256
282 255
282 257
282 250
282 254
282 253
282 249
282 258
282 259
282 260
282 261
282 262
282 265
282 267
282 266
282 264
282 263
282 195
282 202
282 204
282 203
282 201
282 206
282 205
282 200
282 194
282 199
282 198
282 197
282 196
282 193
282 207
282 211
282 210
282 209
282 208
282 186
282 188
282 187
282 189
282 190
282 191
282 183
282 185
282 184
282 17
282 49
282 51
282 55
282 59
282 283
283 284
283 228
283 0
283 2
283 4
283 1
283 3
283 6
283 5
283 8
283 17
283 247
283 248
283 49
283 51
283 55
283 59
283 226
283 227
283 167
283 168
283 175
283 166
283 177
283 176
283 179
283 178
283 181
283 180
283 182
283 183
283 268
283 269
283 272
283 271
283 270
283 275
283 274
283 273
283 276
283 184
283 185
283 260
283 259
283 258
283 262
283 261
283 263
283 264
283 265
283 266
283 267
283 249
283 250
283 251
283 252
283 253
283 254
283 255
283 256
283 257
283 186
283 187
283 188
283 189
283 190
283 191
283 192
283 193
283 194
283 195
283 196
283 197
283 198
283 199
283 200
283 201
283 202
283 203
283 204
283 205
283 206
283 207
283 208
283 209
283 210
283 211
284 279
284 1
284 183
284 268
284 269
284 272
284 271
284 270
284 275
284 274
284 273
284 276
284 184
284 185
284 260
284 259
284 258
284 262
284 261
284 263
284 264
284 266
284 267
284 265
284 249
284 253
284 254
284 250
284 257
284 255
284 256
284 251
284 252
